decision_x1=[0,2];
decision_x2=[0,2];
decision_x3=[0,2];
decision_x4=[0,2];
decision_x5=[0,2];
decision_x6=[0,2];
decision_x7=[0,2];
decision_x8=[0,2];
decision_x9=[0,2];
decision_x10=[0,2];
random_y1=[0,2];
random_y2=[0,2];
constraint_x2_x1=[
0,1,3.7|
0,2,6|
1,0,7.6|
1,2,3.8|
2,0,9.9|
2,1,7.2|
];
constraint_x4_x1=[
0,1,3.7|
0,2,3.6|
1,0,3.5|
1,2,6.3|
2,0,8.3|
2,1,5.1|
];
constraint_x4_x2=[
0,1,5.3|
0,2,1.2|
1,0,3.2|
1,2,6.8|
2,0,2|
2,1,6|
];
constraint_x5_x3=[
0,1,5.1|
0,2,8.4|
1,0,9.2|
1,2,0.23|
2,0,0.68|
2,1,1.4|
];
constraint_x5_x4=[
0,1,2|
0,2,5.2|
1,0,7.7|
1,2,4.4|
2,0,5|
2,1,3.4|
];
constraint_x6_x1=[
0,1,4.7|
0,2,7.6|
1,0,6.1|
1,2,6.8|
2,0,9.4|
2,1,3.7|
];
constraint_x6_x2=[
0,1,5|
0,2,5.6|
1,0,4.6|
1,2,7.4|
2,0,9.9|
2,1,2.1|
];
constraint_x6_x4=[
0,1,5.3|
0,2,2|
1,0,8.5|
1,2,5.7|
2,0,8.1|
2,1,5.7|
];
constraint_x7_x3=[
0,1,6.9|
0,2,7.2|
1,0,7.7|
1,2,2.5|
2,0,0.94|
2,1,0.47|
];
constraint_x7_x6=[
0,1,5.3|
0,2,3.9|
1,0,4.3|
1,2,0.71|
2,0,4.3|
2,1,4.7|
];
constraint_x8_x2=[
0,1,3.6|
0,2,7.7|
1,0,1.3|
1,2,9.9|
2,0,3.7|
2,1,0.56|
];
constraint_x8_x3=[
0,1,5.4|
0,2,2.6|
1,0,5.4|
1,2,8.2|
2,0,6.8|
2,1,9.2|
];
constraint_x8_x5=[
0,1,2|
0,2,1.2|
1,0,3.2|
1,2,9.7|
2,0,6.2|
2,1,0.88|
];
constraint_x8_x7=[
0,1,1.1|
0,2,8.8|
1,0,0.59|
1,2,4.2|
2,0,7.7|
2,1,5.3|
];
constraint_x9_x1=[
0,1,5.3|
0,2,4.9|
1,0,7.6|
1,2,5.8|
2,0,7.4|
2,1,7.4|
];
constraint_x9_x2=[
0,1,6.6|
0,2,0.23|
1,0,1.4|
1,2,2.1|
2,0,0.86|
2,1,7.7|
];
constraint_x9_x3=[
0,1,1.8|
0,2,0.17|
1,0,4.9|
1,2,9.5|
2,0,6.2|
2,1,2.5|
];
constraint_x9_x4=[
0,1,9.4|
0,2,3.6|
1,0,1.1|
1,2,4.3|
2,0,8.5|
2,1,3.1|
];
constraint_x9_x5=[
0,1,0.32|
0,2,0.98|
1,0,1.3|
1,2,1.6|
2,0,1|
2,1,0.21|
];
constraint_x10_x2=[
0,1,6.9|
0,2,9.8|
1,0,9|
1,2,7.9|
2,0,5.6|
2,1,2.4|
];
constraint_x10_x5=[
0,1,0.82|
0,2,2.9|
1,0,3|
1,2,8.2|
2,0,5.5|
2,1,5.6|
];
constraint_x10_x7=[
0,1,9|
0,2,6.5|
1,0,4.3|
1,2,4.3|
2,0,0.24|
2,1,10|
];
constraint_x10_x8=[
0,1,1.3|
0,2,6.7|
1,0,2.9|
1,2,8.3|
2,0,5.7|
2,1,2.5|
];
constraint_x1_y1=[
0,0,8.5|
0,1,9.3|
0,2,3.4|
1,0,3.1|
1,1,0.42|
1,2,7.8|
2,0,3.5|
2,1,0.78|
2,2,0.3|
];
constraint_x2_y2=[
0,0,1.1|
0,1,2.7|
0,2,3.7|
1,0,2.9|
1,1,9|
1,2,6.4|
2,0,10|
2,1,7.3|
2,2,6.5|
];
initial_distribution_y1=[0.47,0.49,0.036];
initial_distribution_y2=[0.4,0.38,0.22];
transition_y1=[
0.4,0.1,0.5|
0.27,0.51,0.22|
0.52,0.093,0.39|
];
transition_y2=[
0.21,0.42,0.37|
0.33,0.34,0.33|
0.1,0.46,0.44|
];
